WARNING: for repeatability, setting FPU to use double precision
============================[ Problem Statistics ]=============================
|                                                                             |
|  Number of variables:           100                                         |
|  Number of clauses:             449                                         |
|  Parse time:                   0.00 s                                       |
|  Eliminated clauses:           0.00 Mb                                      |
|  Simplification time:          0.00 s                                       |
|                                                                             |
============================[ Search Statistics ]==============================
| Conflicts |          ORIGINAL         |          LEARNT          | Progress |
|           |    Vars  Clauses Literals |    Limit  Clauses Lit/Cl |          |
===============================================================================
|       100 |      99      448     1351 |      164      100      7 |  0.010 % |
===============================================================================
restarts              : 3
conflicts             : 223            (69600 /sec)
decisions             : 302            (0.00 % random) (94257 /sec)
propagations          : 5095           (1590200 /sec)
conflict literals     : 1497           (14.94 % deleted)
Memory used           : 13.00 MB
CPU time              : 0.003204 s

SATISFIABLE
